% Instance for pentominoes model generated using https://github.com/zayenz/minizinc-pentominoes-generator
% Instance generated for board size 10 with 10 tiles using 4711 as seed
% Generated board
%    bbbbb66664
%    bbbb666664
%    bbbbb77334
%    1bbbb77334
%    1bbbb77334
%    1115bb7334
%    1115559994
%    1115559999
%    2225589999
%    2228888999

size = 10;
tiles = 10;
expressions = [
    "( ([2 3 4 5 6 7 8 9 10 11]* 1{1} [2 3 4 5 6 7 8 9 10 11]{9} [2 3 4 5 6 7 8 9 10 11] 1{1} [2 3 4 5 6 7 8 9 10 11]{9} [2 3 4 5 6 7 8 9 10 11] 1{3} [2 3 4 5 6 7 8 9 10 11]{7} [2 3 4 5 6 7 8 9 10 11] 1{3} [2 3 4 5 6 7 8 9 10 11]{7} [2 3 4 5 6 7 8 9 10 11] 1{3} [2 3 4 5 6 7 8 9 10 11]*) | ([2 3 4 5 6 7 8 9 10 11]* 1{5} [2 3 4 5 6 7 8 9 10 11]{3} [2 3 4 5 6 7 8 9 10 11] [2 3 4 5 6 7 8 9 10 11]{2} 1{3} [2 3 4 5 6 7 8 9 10 11]{5} [2 3 4 5 6 7 8 9 10 11] [2 3 4 5 6 7 8 9 10 11]{2} 1{3} [2 3 4 5 6 7 8 9 10 11]*) | ([2 3 4 5 6 7 8 9 10 11]* 1{3} [2 3 4 5 6 7 8 9 10 11] [2 3 4 5 6 7 8 9 10 11]{7} 1{3} [2 3 4 5 6 7 8 9 10 11] [2 3 4 5 6 7 8 9 10 11]{7} 1{3} [2 3 4 5 6 7 8 9 10 11] [2 3 4 5 6 7 8 9 10 11]{9} 1{1} [2 3 4 5 6 7 8 9 10 11] [2 3 4 5 6 7 8 9 10 11]{9} 1{1} [2 3 4 5 6 7 8 9 10 11]*) | ([2 3 4 5 6 7 8 9 10 11]* 1{3} [2 3 4 5 6 7 8 9 10 11]{2} [2 3 4 5 6 7 8 9 10 11] [2 3 4 5 6 7 8 9 10 11]{5} 1{3} [2 3 4 5 6 7 8 9 10 11]{2} [2 3 4 5 6 7 8 9 10 11] [2 3 4 5 6 7 8 9 10 11]{3} 1{5} [2 3 4 5 6 7 8 9 10 11]*) | ([2 3 4 5 6 7 8 9 10 11]* 1{1} [2 3 4 5 6 7 8 9 10 11] [2 3 4 5 6 7 8 9 10 11]{9} 1{1} [2 3 4 5 6 7 8 9 10 11] [2 3 4 5 6 7 8 9 10 11]{7} 1{3} [2 3 4 5 6 7 8 9 10 11] [2 3 4 5 6 7 8 9 10 11]{7} 1{3} [2 3 4 5 6 7 8 9 10 11] [2 3 4 5 6 7 8 9 10 11]{7} 1{3} [2 3 4 5 6 7 8 9 10 11]*) | ([2 3 4 5 6 7 8 9 10 11]* 1{5} [2 3 4 5 6 7 8 9 10 11]{2} [2 3 4 5 6 7 8 9 10 11] [2 3 4 5 6 7 8 9 10 11]{5} 1{3} [2 3 4 5 6 7 8 9 10 11]{2} [2 3 4 5 6 7 8 9 10 11] [2 3 4 5 6 7 8 9 10 11]{5} 1{3} [2 3 4 5 6 7 8 9 10 11]*) | ([2 3 4 5 6 7 8 9 10 11]* 1{3} [2 3 4 5 6 7 8 9 10 11]{7} [2 3 4 5 6 7 8 9 10 11] 1{3} [2 3 4 5 6 7 8 9 10 11]{7} [2 3 4 5 6 7 8 9 10 11] 1{3} [2 3 4 5 6 7 8 9 10 11]{7} [2 3 4 5 6 7 8 9 10 11] 1{1} [2 3 4 5 6 7 8 9 10 11]{9} [2 3 4 5 6 7 8 9 10 11] 1{1} [2 3 4 5 6 7 8 9 10 11]*) | ([2 3 4 5 6 7 8 9 10 11]* 1{3} [2 3 4 5 6 7 8 9 10 11]{5} [2 3 4 5 6 7 8 9 10 11] [2 3 4 5 6 7 8 9 10 11]{2} 1{3} [2 3 4 5 6 7 8 9 10 11]{5} [2 3 4 5 6 7 8 9 10 11] [2 3 4 5 6 7 8 9 10 11]{2} 1{5} [2 3 4 5 6 7 8 9 10 11]*) )",
    "( ([1 3 4 5 6 7 8 9 10 11]* 2{3} [1 3 4 5 6 7 8 9 10 11]{7} [1 3 4 5 6 7 8 9 10 11] 2{3} [1 3 4 5 6 7 8 9 10 11]*) | ([1 3 4 5 6 7 8 9 10 11]* 2{2} [1 3 4 5 6 7 8 9 10 11]{8} [1 3 4 5 6 7 8 9 10 11] 2{2} [1 3 4 5 6 7 8 9 10 11]{8} [1 3 4 5 6 7 8 9 10 11] 2{2} [1 3 4 5 6 7 8 9 10 11]*) | ([1 3 4 5 6 7 8 9 10 11]* 2{3} [1 3 4 5 6 7 8 9 10 11] [1 3 4 5 6 7 8 9 10 11]{7} 2{3} [1 3 4 5 6 7 8 9 10 11]*) | ([1 3 4 5 6 7 8 9 10 11]* 2{2} [1 3 4 5 6 7 8 9 10 11] [1 3 4 5 6 7 8 9 10 11]{8} 2{2} [1 3 4 5 6 7 8 9 10 11] [1 3 4 5 6 7 8 9 10 11]{8} 2{2} [1 3 4 5 6 7 8 9 10 11]*) )",
    "( ([1 2 4 5 6 7 8 9 10 11]* 3{2} [1 2 4 5 6 7 8 9 10 11]{1} [1 2 4 5 6 7 8 9 10 11] [1 2 4 5 6 7 8 9 10 11]{7} 3{2} [1 2 4 5 6 7 8 9 10 11]{1} [1 2 4 5 6 7 8 9 10 11] [1 2 4 5 6 7 8 9 10 11]{7} 3{2} [1 2 4 5 6 7 8 9 10 11]{1} [1 2 4 5 6 7 8 9 10 11] [1 2 4 5 6 7 8 9 10 11]{7} 3{2} [1 2 4 5 6 7 8 9 10 11]*) | ([1 2 4 5 6 7 8 9 10 11]* 3{4} [1 2 4 5 6 7 8 9 10 11]{2} [1 2 4 5 6 7 8 9 10 11] [1 2 4 5 6 7 8 9 10 11]{4} 3{4} [1 2 4 5 6 7 8 9 10 11]*) | ([1 2 4 5 6 7 8 9 10 11]* 3{2} [1 2 4 5 6 7 8 9 10 11]{7} [1 2 4 5 6 7 8 9 10 11] [1 2 4 5 6 7 8 9 10 11]{1} 3{2} [1 2 4 5 6 7 8 9 10 11]{7} [1 2 4 5 6 7 8 9 10 11] [1 2 4 5 6 7 8 9 10 11]{1} 3{2} [1 2 4 5 6 7 8 9 10 11]{7} [1 2 4 5 6 7 8 9 10 11] [1 2 4 5 6 7 8 9 10 11]{1} 3{2} [1 2 4 5 6 7 8 9 10 11]*) | ([1 2 4 5 6 7 8 9 10 11]* 3{4} [1 2 4 5 6 7 8 9 10 11]{4} [1 2 4 5 6 7 8 9 10 11] [1 2 4 5 6 7 8 9 10 11]{2} 3{4} [1 2 4 5 6 7 8 9 10 11]*) )",
    "( ([1 2 3 5 6 7 8 9 10 11]* 4{1} [1 2 3 5 6 7 8 9 10 11] [1 2 3 5 6 7 8 9 10 11]{9} 4{1} [1 2 3 5 6 7 8 9 10 11] [1 2 3 5 6 7 8 9 10 11]{9} 4{1} [1 2 3 5 6 7 8 9 10 11] [1 2 3 5 6 7 8 9 10 11]{9} 4{1} [1 2 3 5 6 7 8 9 10 11] [1 2 3 5 6 7 8 9 10 11]{9} 4{1} [1 2 3 5 6 7 8 9 10 11] [1 2 3 5 6 7 8 9 10 11]{9} 4{1} [1 2 3 5 6 7 8 9 10 11] [1 2 3 5 6 7 8 9 10 11]{9} 4{1} [1 2 3 5 6 7 8 9 10 11]*) | ([1 2 3 5 6 7 8 9 10 11]* 4{7} [1 2 3 5 6 7 8 9 10 11]*) | ([1 2 3 5 6 7 8 9 10 11]* 4{1} [1 2 3 5 6 7 8 9 10 11]{9} [1 2 3 5 6 7 8 9 10 11] 4{1} [1 2 3 5 6 7 8 9 10 11]{9} [1 2 3 5 6 7 8 9 10 11] 4{1} [1 2 3 5 6 7 8 9 10 11]{9} [1 2 3 5 6 7 8 9 10 11] 4{1} [1 2 3 5 6 7 8 9 10 11]{9} [1 2 3 5 6 7 8 9 10 11] 4{1} [1 2 3 5 6 7 8 9 10 11]{9} [1 2 3 5 6 7 8 9 10 11] 4{1} [1 2 3 5 6 7 8 9 10 11]{9} [1 2 3 5 6 7 8 9 10 11] 4{1} [1 2 3 5 6 7 8 9 10 11]*) )",
    "( ([1 2 3 4 6 7 8 9 10 11]* 5{1} [1 2 3 4 6 7 8 9 10 11]{6} [1 2 3 4 6 7 8 9 10 11] [1 2 3 4 6 7 8 9 10 11]{3} 5{3} [1 2 3 4 6 7 8 9 10 11]{4} [1 2 3 4 6 7 8 9 10 11] [1 2 3 4 6 7 8 9 10 11]{3} 5{3} [1 2 3 4 6 7 8 9 10 11]{4} [1 2 3 4 6 7 8 9 10 11] [1 2 3 4 6 7 8 9 10 11]{3} 5{2} [1 2 3 4 6 7 8 9 10 11]*) | ([1 2 3 4 6 7 8 9 10 11]* 5{4} [1 2 3 4 6 7 8 9 10 11]{5} [1 2 3 4 6 7 8 9 10 11] [1 2 3 4 6 7 8 9 10 11]{1} 5{3} [1 2 3 4 6 7 8 9 10 11]{6} [1 2 3 4 6 7 8 9 10 11] [1 2 3 4 6 7 8 9 10 11]{2} 5{2} [1 2 3 4 6 7 8 9 10 11]*) | ([1 2 3 4 6 7 8 9 10 11]* 5{2} [1 2 3 4 6 7 8 9 10 11]{3} [1 2 3 4 6 7 8 9 10 11] [1 2 3 4 6 7 8 9 10 11]{4} 5{3} [1 2 3 4 6 7 8 9 10 11]{3} [1 2 3 4 6 7 8 9 10 11] [1 2 3 4 6 7 8 9 10 11]{4} 5{3} [1 2 3 4 6 7 8 9 10 11]{3} [1 2 3 4 6 7 8 9 10 11] [1 2 3 4 6 7 8 9 10 11]{6} 5{1} [1 2 3 4 6 7 8 9 10 11]*) | ([1 2 3 4 6 7 8 9 10 11]* 5{2} [1 2 3 4 6 7 8 9 10 11]{2} [1 2 3 4 6 7 8 9 10 11] [1 2 3 4 6 7 8 9 10 11]{6} 5{3} [1 2 3 4 6 7 8 9 10 11]{1} [1 2 3 4 6 7 8 9 10 11] [1 2 3 4 6 7 8 9 10 11]{5} 5{4} [1 2 3 4 6 7 8 9 10 11]*) | ([1 2 3 4 6 7 8 9 10 11]* 5{1} [1 2 3 4 6 7 8 9 10 11]{3} [1 2 3 4 6 7 8 9 10 11] [1 2 3 4 6 7 8 9 10 11]{4} 5{3} [1 2 3 4 6 7 8 9 10 11]{3} [1 2 3 4 6 7 8 9 10 11] [1 2 3 4 6 7 8 9 10 11]{4} 5{3} [1 2 3 4 6 7 8 9 10 11]{3} [1 2 3 4 6 7 8 9 10 11] [1 2 3 4 6 7 8 9 10 11]{5} 5{2} [1 2 3 4 6 7 8 9 10 11]*) | ([1 2 3 4 6 7 8 9 10 11]* 5{4} [1 2 3 4 6 7 8 9 10 11]{1} [1 2 3 4 6 7 8 9 10 11] [1 2 3 4 6 7 8 9 10 11]{6} 5{3} [1 2 3 4 6 7 8 9 10 11]{1} [1 2 3 4 6 7 8 9 10 11] [1 2 3 4 6 7 8 9 10 11]{6} 5{2} [1 2 3 4 6 7 8 9 10 11]*) | ([1 2 3 4 6 7 8 9 10 11]* 5{2} [1 2 3 4 6 7 8 9 10 11]{5} [1 2 3 4 6 7 8 9 10 11] [1 2 3 4 6 7 8 9 10 11]{3} 5{3} [1 2 3 4 6 7 8 9 10 11]{4} [1 2 3 4 6 7 8 9 10 11] [1 2 3 4 6 7 8 9 10 11]{3} 5{3} [1 2 3 4 6 7 8 9 10 11]{4} [1 2 3 4 6 7 8 9 10 11] [1 2 3 4 6 7 8 9 10 11]{3} 5{1} [1 2 3 4 6 7 8 9 10 11]*) | ([1 2 3 4 6 7 8 9 10 11]* 5{2} [1 2 3 4 6 7 8 9 10 11]{6} [1 2 3 4 6 7 8 9 10 11] [1 2 3 4 6 7 8 9 10 11]{1} 5{3} [1 2 3 4 6 7 8 9 10 11]{6} [1 2 3 4 6 7 8 9 10 11] [1 2 3 4 6 7 8 9 10 11]{1} 5{4} [1 2 3 4 6 7 8 9 10 11]*) )",
    "( ([1 2 3 4 5 7 8 9 10 11]* 6{4} [1 2 3 4 5 7 8 9 10 11]{1} [1 2 3 4 5 7 8 9 10 11] [1 2 3 4 5 7 8 9 10 11]{4} 6{5} [1 2 3 4 5 7 8 9 10 11]*) | ([1 2 3 4 5 7 8 9 10 11]* 6{1} [1 2 3 4 5 7 8 9 10 11]{1} [1 2 3 4 5 7 8 9 10 11] [1 2 3 4 5 7 8 9 10 11]{8} 6{2} [1 2 3 4 5 7 8 9 10 11] [1 2 3 4 5 7 8 9 10 11]{8} 6{2} [1 2 3 4 5 7 8 9 10 11] [1 2 3 4 5 7 8 9 10 11]{8} 6{2} [1 2 3 4 5 7 8 9 10 11] [1 2 3 4 5 7 8 9 10 11]{8} 6{2} [1 2 3 4 5 7 8 9 10 11]*) | ([1 2 3 4 5 7 8 9 10 11]* 6{5} [1 2 3 4 5 7 8 9 10 11]{4} [1 2 3 4 5 7 8 9 10 11] [1 2 3 4 5 7 8 9 10 11]{1} 6{4} [1 2 3 4 5 7 8 9 10 11]*) | ([1 2 3 4 5 7 8 9 10 11]* 6{2} [1 2 3 4 5 7 8 9 10 11]{8} [1 2 3 4 5 7 8 9 10 11] 6{2} [1 2 3 4 5 7 8 9 10 11]{8} [1 2 3 4 5 7 8 9 10 11] 6{2} [1 2 3 4 5 7 8 9 10 11]{8} [1 2 3 4 5 7 8 9 10 11] 6{2} [1 2 3 4 5 7 8 9 10 11]{8} [1 2 3 4 5 7 8 9 10 11] [1 2 3 4 5 7 8 9 10 11]{1} 6{1} [1 2 3 4 5 7 8 9 10 11]*) | ([1 2 3 4 5 7 8 9 10 11]* 6{4} [1 2 3 4 5 7 8 9 10 11]{5} [1 2 3 4 5 7 8 9 10 11] [1 2 3 4 5 7 8 9 10 11]{1} 6{5} [1 2 3 4 5 7 8 9 10 11]*) | ([1 2 3 4 5 7 8 9 10 11]* 6{1} [1 2 3 4 5 7 8 9 10 11]{8} [1 2 3 4 5 7 8 9 10 11] 6{2} [1 2 3 4 5 7 8 9 10 11]{8} [1 2 3 4 5 7 8 9 10 11] 6{2} [1 2 3 4 5 7 8 9 10 11]{8} [1 2 3 4 5 7 8 9 10 11] 6{2} [1 2 3 4 5 7 8 9 10 11]{8} [1 2 3 4 5 7 8 9 10 11] 6{2} [1 2 3 4 5 7 8 9 10 11]*) | ([1 2 3 4 5 7 8 9 10 11]* 6{5} [1 2 3 4 5 7 8 9 10 11]{1} [1 2 3 4 5 7 8 9 10 11] [1 2 3 4 5 7 8 9 10 11]{5} 6{4} [1 2 3 4 5 7 8 9 10 11]*) | ([1 2 3 4 5 7 8 9 10 11]* 6{2} [1 2 3 4 5 7 8 9 10 11] [1 2 3 4 5 7 8 9 10 11]{8} 6{2} [1 2 3 4 5 7 8 9 10 11] [1 2 3 4 5 7 8 9 10 11]{8} 6{2} [1 2 3 4 5 7 8 9 10 11] [1 2 3 4 5 7 8 9 10 11]{8} 6{2} [1 2 3 4 5 7 8 9 10 11] [1 2 3 4 5 7 8 9 10 11]{8} 6{1} [1 2 3 4 5 7 8 9 10 11]*) )",
    "( ([1 2 3 4 5 6 8 9 10 11]* 7{2} [1 2 3 4 5 6 8 9 10 11]{3} [1 2 3 4 5 6 8 9 10 11] [1 2 3 4 5 6 8 9 10 11]{5} 7{2} [1 2 3 4 5 6 8 9 10 11]{3} [1 2 3 4 5 6 8 9 10 11] [1 2 3 4 5 6 8 9 10 11]{5} 7{2} [1 2 3 4 5 6 8 9 10 11]{3} [1 2 3 4 5 6 8 9 10 11] [1 2 3 4 5 6 8 9 10 11]{6} 7{1} [1 2 3 4 5 6 8 9 10 11]*) | ([1 2 3 4 5 6 8 9 10 11]* 7{3} [1 2 3 4 5 6 8 9 10 11]{2} [1 2 3 4 5 6 8 9 10 11] [1 2 3 4 5 6 8 9 10 11]{4} 7{4} [1 2 3 4 5 6 8 9 10 11]*) | ([1 2 3 4 5 6 8 9 10 11]* 7{1} [1 2 3 4 5 6 8 9 10 11]{6} [1 2 3 4 5 6 8 9 10 11] [1 2 3 4 5 6 8 9 10 11]{3} 7{2} [1 2 3 4 5 6 8 9 10 11]{5} [1 2 3 4 5 6 8 9 10 11] [1 2 3 4 5 6 8 9 10 11]{3} 7{2} [1 2 3 4 5 6 8 9 10 11]{5} [1 2 3 4 5 6 8 9 10 11] [1 2 3 4 5 6 8 9 10 11]{3} 7{2} [1 2 3 4 5 6 8 9 10 11]*) | ([1 2 3 4 5 6 8 9 10 11]* 7{4} [1 2 3 4 5 6 8 9 10 11]{4} [1 2 3 4 5 6 8 9 10 11] [1 2 3 4 5 6 8 9 10 11]{2} 7{3} [1 2 3 4 5 6 8 9 10 11]*) | ([1 2 3 4 5 6 8 9 10 11]* 7{2} [1 2 3 4 5 6 8 9 10 11]{5} [1 2 3 4 5 6 8 9 10 11] [1 2 3 4 5 6 8 9 10 11]{3} 7{2} [1 2 3 4 5 6 8 9 10 11]{5} [1 2 3 4 5 6 8 9 10 11] [1 2 3 4 5 6 8 9 10 11]{3} 7{2} [1 2 3 4 5 6 8 9 10 11]{5} [1 2 3 4 5 6 8 9 10 11] [1 2 3 4 5 6 8 9 10 11]{3} 7{1} [1 2 3 4 5 6 8 9 10 11]*) | ([1 2 3 4 5 6 8 9 10 11]* 7{3} [1 2 3 4 5 6 8 9 10 11]{5} [1 2 3 4 5 6 8 9 10 11] [1 2 3 4 5 6 8 9 10 11]{2} 7{4} [1 2 3 4 5 6 8 9 10 11]*) | ([1 2 3 4 5 6 8 9 10 11]* 7{1} [1 2 3 4 5 6 8 9 10 11]{3} [1 2 3 4 5 6 8 9 10 11] [1 2 3 4 5 6 8 9 10 11]{5} 7{2} [1 2 3 4 5 6 8 9 10 11]{3} [1 2 3 4 5 6 8 9 10 11] [1 2 3 4 5 6 8 9 10 11]{5} 7{2} [1 2 3 4 5 6 8 9 10 11]{3} [1 2 3 4 5 6 8 9 10 11] [1 2 3 4 5 6 8 9 10 11]{5} 7{2} [1 2 3 4 5 6 8 9 10 11]*) | ([1 2 3 4 5 6 8 9 10 11]* 7{4} [1 2 3 4 5 6 8 9 10 11]{2} [1 2 3 4 5 6 8 9 10 11] [1 2 3 4 5 6 8 9 10 11]{5} 7{3} [1 2 3 4 5 6 8 9 10 11]*) )",
    "( ([1 2 3 4 5 6 7 9 10 11]* 8{1} [1 2 3 4 5 6 7 9 10 11]{4} [1 2 3 4 5 6 7 9 10 11] [1 2 3 4 5 6 7 9 10 11]{3} 8{4} [1 2 3 4 5 6 7 9 10 11]*) | ([1 2 3 4 5 6 7 9 10 11]* 8{1} [1 2 3 4 5 6 7 9 10 11]{9} [1 2 3 4 5 6 7 9 10 11] 8{1} [1 2 3 4 5 6 7 9 10 11]{9} [1 2 3 4 5 6 7 9 10 11] 8{2} [1 2 3 4 5 6 7 9 10 11]{8} [1 2 3 4 5 6 7 9 10 11] 8{1} [1 2 3 4 5 6 7 9 10 11]*) | ([1 2 3 4 5 6 7 9 10 11]* 8{4} [1 2 3 4 5 6 7 9 10 11]{3} [1 2 3 4 5 6 7 9 10 11] [1 2 3 4 5 6 7 9 10 11]{4} 8{1} [1 2 3 4 5 6 7 9 10 11]*) | ([1 2 3 4 5 6 7 9 10 11]* 8{1} [1 2 3 4 5 6 7 9 10 11] [1 2 3 4 5 6 7 9 10 11]{8} 8{2} [1 2 3 4 5 6 7 9 10 11] [1 2 3 4 5 6 7 9 10 11]{9} 8{1} [1 2 3 4 5 6 7 9 10 11] [1 2 3 4 5 6 7 9 10 11]{9} 8{1} [1 2 3 4 5 6 7 9 10 11]*) | ([1 2 3 4 5 6 7 9 10 11]* 8{1} [1 2 3 4 5 6 7 9 10 11]{5} [1 2 3 4 5 6 7 9 10 11] [1 2 3 4 5 6 7 9 10 11]{3} 8{4} [1 2 3 4 5 6 7 9 10 11]*) | ([1 2 3 4 5 6 7 9 10 11]* 8{1} [1 2 3 4 5 6 7 9 10 11] [1 2 3 4 5 6 7 9 10 11]{9} 8{1} [1 2 3 4 5 6 7 9 10 11] [1 2 3 4 5 6 7 9 10 11]{8} 8{2} [1 2 3 4 5 6 7 9 10 11] [1 2 3 4 5 6 7 9 10 11]{9} 8{1} [1 2 3 4 5 6 7 9 10 11]*) | ([1 2 3 4 5 6 7 9 10 11]* 8{4} [1 2 3 4 5 6 7 9 10 11]{3} [1 2 3 4 5 6 7 9 10 11] [1 2 3 4 5 6 7 9 10 11]{5} 8{1} [1 2 3 4 5 6 7 9 10 11]*) | ([1 2 3 4 5 6 7 9 10 11]* 8{1} [1 2 3 4 5 6 7 9 10 11]{9} [1 2 3 4 5 6 7 9 10 11] 8{2} [1 2 3 4 5 6 7 9 10 11]{8} [1 2 3 4 5 6 7 9 10 11] 8{1} [1 2 3 4 5 6 7 9 10 11]{9} [1 2 3 4 5 6 7 9 10 11] 8{1} [1 2 3 4 5 6 7 9 10 11]*) )",
    "( ([1 2 3 4 5 6 7 8 10 11]* 9{3} [1 2 3 4 5 6 7 8 10 11]{1} [1 2 3 4 5 6 7 8 10 11] [1 2 3 4 5 6 7 8 10 11]{6} 9{4} [1 2 3 4 5 6 7 8 10 11] [1 2 3 4 5 6 7 8 10 11]{6} 9{4} [1 2 3 4 5 6 7 8 10 11] [1 2 3 4 5 6 7 8 10 11]{7} 9{3} [1 2 3 4 5 6 7 8 10 11]*) | ([1 2 3 4 5 6 7 8 10 11]* 9{3} [1 2 3 4 5 6 7 8 10 11]{6} [1 2 3 4 5 6 7 8 10 11] 9{4} [1 2 3 4 5 6 7 8 10 11]{6} [1 2 3 4 5 6 7 8 10 11] 9{4} [1 2 3 4 5 6 7 8 10 11]{6} [1 2 3 4 5 6 7 8 10 11] 9{3} [1 2 3 4 5 6 7 8 10 11]*) | ([1 2 3 4 5 6 7 8 10 11]* 9{3} [1 2 3 4 5 6 7 8 10 11]{7} [1 2 3 4 5 6 7 8 10 11] 9{4} [1 2 3 4 5 6 7 8 10 11]{6} [1 2 3 4 5 6 7 8 10 11] 9{4} [1 2 3 4 5 6 7 8 10 11]{6} [1 2 3 4 5 6 7 8 10 11] [1 2 3 4 5 6 7 8 10 11]{1} 9{3} [1 2 3 4 5 6 7 8 10 11]*) | ([1 2 3 4 5 6 7 8 10 11]* 9{3} [1 2 3 4 5 6 7 8 10 11] [1 2 3 4 5 6 7 8 10 11]{6} 9{4} [1 2 3 4 5 6 7 8 10 11] [1 2 3 4 5 6 7 8 10 11]{6} 9{4} [1 2 3 4 5 6 7 8 10 11] [1 2 3 4 5 6 7 8 10 11]{6} 9{3} [1 2 3 4 5 6 7 8 10 11]*) )",
    "( ([1 2 3 4 5 6 7 8 9 11]* 10{5} [1 2 3 4 5 6 7 8 9 11]{5} [1 2 3 4 5 6 7 8 9 11] 10{4} [1 2 3 4 5 6 7 8 9 11]{6} [1 2 3 4 5 6 7 8 9 11] 10{5} [1 2 3 4 5 6 7 8 9 11]{5} [1 2 3 4 5 6 7 8 9 11] [1 2 3 4 5 6 7 8 9 11]{1} 10{4} [1 2 3 4 5 6 7 8 9 11]{5} [1 2 3 4 5 6 7 8 9 11] [1 2 3 4 5 6 7 8 9 11]{1} 10{4} [1 2 3 4 5 6 7 8 9 11]{5} [1 2 3 4 5 6 7 8 9 11] [1 2 3 4 5 6 7 8 9 11]{4} 10{2} [1 2 3 4 5 6 7 8 9 11]*) | ([1 2 3 4 5 6 7 8 9 11]* 10{3} [1 2 3 4 5 6 7 8 9 11] [1 2 3 4 5 6 7 8 9 11]{5} 10{5} [1 2 3 4 5 6 7 8 9 11] [1 2 3 4 5 6 7 8 9 11]{5} 10{5} [1 2 3 4 5 6 7 8 9 11] [1 2 3 4 5 6 7 8 9 11]{5} 10{5} [1 2 3 4 5 6 7 8 9 11] [1 2 3 4 5 6 7 8 9 11]{4} 10{4} [1 2 3 4 5 6 7 8 9 11]{1} 10{1} [1 2 3 4 5 6 7 8 9 11] [1 2 3 4 5 6 7 8 9 11]{4} 10{1} [1 2 3 4 5 6 7 8 9 11]*) | ([1 2 3 4 5 6 7 8 9 11]* 10{2} [1 2 3 4 5 6 7 8 9 11]{4} [1 2 3 4 5 6 7 8 9 11] [1 2 3 4 5 6 7 8 9 11]{5} 10{4} [1 2 3 4 5 6 7 8 9 11]{1} [1 2 3 4 5 6 7 8 9 11] [1 2 3 4 5 6 7 8 9 11]{5} 10{4} [1 2 3 4 5 6 7 8 9 11]{1} [1 2 3 4 5 6 7 8 9 11] [1 2 3 4 5 6 7 8 9 11]{5} 10{5} [1 2 3 4 5 6 7 8 9 11] [1 2 3 4 5 6 7 8 9 11]{6} 10{4} [1 2 3 4 5 6 7 8 9 11] [1 2 3 4 5 6 7 8 9 11]{5} 10{5} [1 2 3 4 5 6 7 8 9 11]*) | ([1 2 3 4 5 6 7 8 9 11]* 10{1} [1 2 3 4 5 6 7 8 9 11]{4} [1 2 3 4 5 6 7 8 9 11] 10{1} [1 2 3 4 5 6 7 8 9 11]{1} 10{4} [1 2 3 4 5 6 7 8 9 11]{4} [1 2 3 4 5 6 7 8 9 11] 10{5} [1 2 3 4 5 6 7 8 9 11]{5} [1 2 3 4 5 6 7 8 9 11] 10{5} [1 2 3 4 5 6 7 8 9 11]{5} [1 2 3 4 5 6 7 8 9 11] 10{5} [1 2 3 4 5 6 7 8 9 11]{5} [1 2 3 4 5 6 7 8 9 11] 10{3} [1 2 3 4 5 6 7 8 9 11]*) | ([1 2 3 4 5 6 7 8 9 11]* 10{5} [1 2 3 4 5 6 7 8 9 11] [1 2 3 4 5 6 7 8 9 11]{6} 10{4} [1 2 3 4 5 6 7 8 9 11] [1 2 3 4 5 6 7 8 9 11]{5} 10{5} [1 2 3 4 5 6 7 8 9 11] [1 2 3 4 5 6 7 8 9 11]{5} 10{4} [1 2 3 4 5 6 7 8 9 11]{1} [1 2 3 4 5 6 7 8 9 11] [1 2 3 4 5 6 7 8 9 11]{5} 10{4} [1 2 3 4 5 6 7 8 9 11]{1} [1 2 3 4 5 6 7 8 9 11] [1 2 3 4 5 6 7 8 9 11]{4} 10{2} [1 2 3 4 5 6 7 8 9 11]*) | ([1 2 3 4 5 6 7 8 9 11]* 10{3} [1 2 3 4 5 6 7 8 9 11]{7} [1 2 3 4 5 6 7 8 9 11] 10{5} [1 2 3 4 5 6 7 8 9 11]{5} [1 2 3 4 5 6 7 8 9 11] 10{5} [1 2 3 4 5 6 7 8 9 11]{5} [1 2 3 4 5 6 7 8 9 11] 10{5} [1 2 3 4 5 6 7 8 9 11]{5} [1 2 3 4 5 6 7 8 9 11] 10{1} [1 2 3 4 5 6 7 8 9 11]{1} 10{4} [1 2 3 4 5 6 7 8 9 11]{4} [1 2 3 4 5 6 7 8 9 11] [1 2 3 4 5 6 7 8 9 11]{5} 10{1} [1 2 3 4 5 6 7 8 9 11]*) | ([1 2 3 4 5 6 7 8 9 11]* 10{2} [1 2 3 4 5 6 7 8 9 11]{4} [1 2 3 4 5 6 7 8 9 11] [1 2 3 4 5 6 7 8 9 11]{1} 10{4} [1 2 3 4 5 6 7 8 9 11]{5} [1 2 3 4 5 6 7 8 9 11] [1 2 3 4 5 6 7 8 9 11]{1} 10{4} [1 2 3 4 5 6 7 8 9 11]{5} [1 2 3 4 5 6 7 8 9 11] 10{5} [1 2 3 4 5 6 7 8 9 11]{5} [1 2 3 4 5 6 7 8 9 11] 10{4} [1 2 3 4 5 6 7 8 9 11]{6} [1 2 3 4 5 6 7 8 9 11] 10{5} [1 2 3 4 5 6 7 8 9 11]*) | ([1 2 3 4 5 6 7 8 9 11]* 10{1} [1 2 3 4 5 6 7 8 9 11]{5} [1 2 3 4 5 6 7 8 9 11] [1 2 3 4 5 6 7 8 9 11]{4} 10{4} [1 2 3 4 5 6 7 8 9 11]{1} 10{1} [1 2 3 4 5 6 7 8 9 11] [1 2 3 4 5 6 7 8 9 11]{5} 10{5} [1 2 3 4 5 6 7 8 9 11] [1 2 3 4 5 6 7 8 9 11]{5} 10{5} [1 2 3 4 5 6 7 8 9 11] [1 2 3 4 5 6 7 8 9 11]{5} 10{5} [1 2 3 4 5 6 7 8 9 11] [1 2 3 4 5 6 7 8 9 11]{7} 10{3} [1 2 3 4 5 6 7 8 9 11]*) )",
];
